c A SAT instance generated from a 3-CNF formula that had 20 clauses and 10 variables
p cnf 10 20
-8 1 5 0
-5 7 -2 0
8 7 2 0
2 -9 3 0
-1 -7 9 0
-3 5 -1 0
-2 4 -5 0
10 -4 5 0
5 -6 9 0
9 3 -10 0
-5 -7 3 0
-4 -2 7 0
-9 -5 -6 0
-10 -4 -9 0
10 5 -6 0
1 9 2 0
5 7 4 0
1 3 7 0
-6 8 9 0
2 10 -4 0
%
0

11 21 48 11 79 58 34 63 96 10
